000 -99 -99 -99 -99 -99 000 000 -99 -99 -99 -99 -99 000 000 -99 -99 -99 -99 -99 -99 -99 -99 -99 000 000 -99 000 000 -99 000
-99 -99 000 000 000 -99 000 000 000 -99 -99 -99 -99 000 000 000 -99 -99 -99 -99 -99 -99 -99 -99 000 000 000 000 000 -99 -99
-99 000 000 000 000 -99 -99 000 000 -99 -99 -99 -99 -99 000 000 -99 -99 -99 -99 -99 -99 000 000 000 000 000 000 000 -99 -99
-99 -99 000 000 000 000 -99 000 000 000 -99 -99 -99 -99 000 000 000 -99 -99 -99 -99 -99 000 000 000 000 000 000 000 000 -99
000 000 000 000 000 000 000 000 000 000 -99 -99 000 -99 -99 000 000 -99 -99 -99 -99 000 000 000 000 000 000 000 -99 -99 -99
000 000 000 000 000 000 000 000 000 000 000 -99 000 -99 -99 000 000 000 -99 -99 000 -99 000 000 000 -99 -99 -99 -99 -99 -99
000 000 000 000 000 000 000 000 000 000 -99 -99 -99 -99 -99 000 000 000 -99 -99 -99 000 000 000 000 000 -99 -99 -99 -99 -99
000 000 000 000 000 000 000 -99 000 000 -99 -99 -99 -99 000 000 000 000 -99 -99 -99 000 000 000 000 000 -99 -99 -99 000 000
000 000 000 000 000 000 000 000 000 000 000 -99 -99 -99 -99 -99 000 000 -99 -99 000 000 000 000 000 -99 000 000 -99 000 000
000 000 000 000 000 000 000 000 000 000 000 000 -99 -99 -99 -99 000 -99 000 000 000 000 000 -99 000 -99 000 000 -99 -99 000
000 000 000 000 000 000 000 000 000 000 000 000 -99 -99 -99 -99 000 000 000 000 000 000 000 000 000 000 000 000 001 000 000
000 000 000 000 000 -99 000 000 000 000 000 000 000 -99 -99 000 000 000 000 000 000 000 000 000 000 -99 -99 003 003 000 000
000 000 000 000 000 000 000 000 000 -99 000 000 -99 -99 -99 000 000 000 000 000 000 000 -99 000 000 000 000 000 001 000 000
000 000 000 000 000 000 000 000 -99 -99 -99 000 -99 -99 -99 000 000 000 000 000 000 000 001 000 000 000 000 000 001 000 000
000 000 000 000 000 000 000 000 -99 -99 -99 -99 -99 -99 -99 000 000 000 000 000 000 000 001 000 001 000 000 001 001 001 000
000 000 000 000 000 000 000 000 -99 -99 -99 -99 -99 000 -99 000 000 000 000 000 000 000 001 001 002 001 001 001 001 001 001
000 000 000 000 000 000 000 000 -99 -99 -99 -99 000 000 000 000 000 000 000 000 001 001 001 001 002 001 001 001 001 001 001
000 000 000 000 000 000 000 000 000 000 -99 -99 000 000 000 000 000 000 000 000 000 001 001 001 001 001 001 001 001 001 001
000 000 000 000 000 000 000 000 000 000 -99 -99 000 000 000 000 000 000 000 001 001 001 001 001 002 002 003 003 003 003 001
000 000 000 000 000 000 000 000 000 000 -99 -99 000 000 000 000 000 000 000 001 001 003 002 001 002 003 003 004 004 004 002
000 000 000 000 000 000 000 000 000 -99 -99 -99 -99 -99 000 000 000 000 001 002 002 003 003 003 003 004 005 005 004 004 003
000 000 000 000 000 000 000 000 000 000 -99 -99 -99 -99 000 000 000 000 000 002 001 002 002 004 004 006 005 005 006 004 005
000 000 000 000 000 000 000 000 000 000 -99 -99 -99 -99 000 000 000 000 000 002 002 002 003 003 004 006 006 005 005 004 004
000 000 000 000 000 -99 000 000 000 000 -99 -99 -99 000 000 000 000 000 000 001 003 002 002 002 004 006 008 -99 005 004 004
000 000 000 000 000 000 000 000 000 000 -99 -99 -99 000 000 000 000 000 000 001 002 002 002 003 004 005 007 -99 004 003 003
000 000 000 000 000 000 000 000 -99 000 -99 -99 -99 000 000 000 000 000 000 001 001 001 003 003 004 005 -99 -99 004 003 002
000 000 000 000 000 000 000 000 000 000 -99 -99 -99 000 000 000 000 000 000 000 000 001 002 003 003 -99 -99 -99 004 003 002
000 000 000 000 000 000 000 000 000 000 -99 -99 -99 000 000 000 000 000 000 000 000 001 002 002 003 -99 005 005 003 003 002
000 000 000 000 000 000 000 000 000 000 -99 -99 -99 000 000 000 000 000 000 000 000 001 -99 002 002 -99 004 004 003 003 002
000 000 000 000 000 000 000 000 000 000 -99 -99 -99 000 000 000 000 000 000 000 001 001 -99 002 001 001 002 002 002 -99 002
000 000 000 000 000 000 000 000 000 000 -99 -99 -99 000 000 000 000 000 000 000 000 000 000 001 001 001 001 001 002 -99 001
000 000 000 000 000 -99 000 000 000 -99 -99 -99 -99 000 000 000 000 000 000 000 000 000 000 000 000 000 000 001 000 -99 001
000 000 000 000 000 000 000 000 000 -99 -99 -99 -99 000 000 000 000 000 000 000 -99 000 000 000 000 000 000 000 000 000 000
-99 000 000 000 000 000 000 000 000 -99 -99 -99 -99 000 000 000 000 000 000 -99 000 000 000 -99 000 000 000 000 000 000 000
000 000 000 000 000 000 000 000 000 000 -99 000 000 000 000 000 000 000 -99 000 000 000 000 000 000 000 000 000 000 000 000
000 000 000 000 000 000 000 000 000 000 -99 -99 000 000 000 000 000 000 000 000 000 000 000 000 000 000 000 000 000 000 000
000 000 -99 000 000 000 -99 -99 000 -99 -99 -99 000 000 000 000 000 000 000 000 000 000 000 000 000 000 000 000 000 000 000
000 -99 -99 000 000 -99 -99 -99 -99 -99 -99 -99 000 000 000 000 000 000 000 000 000 000 000 000 000 000 000 000 000 -99 -99
000 -99 -99 000 -99 -99 -99 -99 -99 -99 -99 -99 -99 000 000 000 000 000 000 000 000 000 000 000 000 000 000 -99 -99 -99 -99
000 000 000 000 -99 -99 -99 -99 -99 -99 -99 000 000 000 000 000 000 -99 -99 -99 -99 -99 000 000 -99 000 000 -99 -99 -99 -99
000 000 000 000 -99 -99 -99 -99 -99 -99 000 000 000 000 000 000 000 -99 -99 -99 -99 -99 -99 000 -99 000 000 -99 -99 -99 -99
000 000 -99 000 -99 -99 -99 -99 -99 -99 000 000 000 000 000 -99 -99 000 -99 -99 -99 -99 -99 000 000 000 -99 -99 -99 -99 -99
000 -99 -99 -99 -99 -99 -99 -99 -99 000 000 000 000 000 -99 -99 -99 000 000 -99 000 000 000 000 000 000 -99 -99 -99 -99 -99
000 -99 -99 -99 -99 -99 -99 -99 -99 -99 000 000 000 000 000 000 -99 000 000 000 000 000 000 -99 000 000 -99 -99 -99 -99 -99
-99 -99 -99 -99 -99 -99 000 000 -99 -99 -99 000 000 -99 000 000 -99 -99 -99 000 000 000 000 000 000 -99 -99 -99 -99 -99 -99
000 -99 -99 -99 -99 -99 -99 -99 -99 -99 -99 -99 000 000 000 -99 -99 -99 000 000 000 000 001 001 000 -99 -99 -99 -99 -99 -99
000 -99 -99 -99 -99 -99 -99 -99 -99 -99 -99 000 000 -99 000 -99 -99 -99 000 000 000 000 002 001 000 -99 -99 -99 -99 -99 -99
-99 -99 -99 -99 -99 -99 -99 -99 -99 -99 -99 000 000 -99 -99 000 000 000 000 000 000 001 005 000 000 000 -99 -99 -99 -99 -99
-99 -99 -99 -99 -99 -99 -99 -99 -99 -99 -99 -99 -99 -99 000 000 000 000 000 000 000 001 001 000 000 000 -99 -99 -99 -99 -99
-99 -99 -99 -99 -99 -99 -99 -99 -99 -99 -99 -99 -99 -99 000 000 000 000 000 001 000 001 000 000 000 -99 -99 -99 -99 -99 -99
-99 -99 -99 -99 -99 -99 -99 -99 -99 -99 -99 -99 -99 -99 -99 000 000 000 002 002 001 000 000 -99 -99 -99 -99 -99 -99 -99 -99
-99 -99 -99 -99 -99 -99 -99 -99 -99 -99 -99 -99 -99 -99 -99 000 000 001 005 009 002 000 000 -99 000 000 -99 -99 -99 -99 -99
-99 -99 -99 -99 -99 -99 -99 -99 -99 -99 -99 -99 -99 -99 000 000 000 001 007 011 000 001 000 000 000 -99 -99 -99 -99 -99 -99
-99 -99 -99 -99 -99 -99 -99 -99 -99 -99 -99 -99 -99 -99 -99 000 000 001 005 002 002 001 000 000 -99 -99 -99 -99 -99 -99 -99
-99 -99 -99 -99 -99 -99 -99 -99 -99 -99 -99 -99 -99 -99 -99 000 000 000 001 001 004 001 000 000 -99 -99 -99 -99 -99 -99 -99
